Please solve the following SAT Problem encoded in DIMACS format, only return a single solution assignment without explanations, if there is any: 
p cnf 10 65
7 10 6 0
9 10 8 0
4 -1 2 0
9 -1 -4 0
-9 4 3 0
10 2 8 0
-6 8 -5 0
-1 2 8 0
-1 -7 -8 0
7 3 4 0
2 -7 -6 0
7 -10 9 0
10 -1 -9 0
7 9 2 0
4 -5 2 0
-6 -4 2 0
-5 -6 8 0
10 9 4 0
-1 9 8 0
7 4 9 0
3 -6 2 0
8 2 9 0
-1 10 2 0
7 3 10 0
3 10 -8 0
-5 3 8 0
-6 9 4 0
8 -1 3 0
4 9 -5 0
2 -1 3 0
-1 2 7 0
-9 10 2 0
9 -6 8 0
-6 4 2 0
4 8 5 0
4 8 1 0
4 -5 9 0
8 10 -5 0
-1 3 9 0
-1 -2 -8 0
2 3 4 0
4 -6 1 0
-8 -1 3 0
5 7 4 0
4 6 -5 0
8 -1 -5 0
9 7 2 0
7 8 6 0
10 7 8 0
9 4 8 0
-6 1 9 0
10 -7 8 0
9 -1 -6 0
10 -5 7 0
4 -5 -1 0
10 -6 5 0
7 2 8 0
1 10 2 0
-5 10 -1 0
-5 9 4 0
3 5 -6 0
2 7 -6 0
8 6 3 0
-10 -6 4 0
3 -1 -6 0

